2023/05/23
Julia is now 1.9.0
previous version was 1.7.2
2023/11/29
gurobi is now 11.0.0
previous version was 10.0.2
solving instance knapsack 10 4 cubic
feasible solution found by trivial heuristic after 0.0 seconds, objective value 0.000000e+00
presolving:
(round 1, fast)       10 del vars, 20 del conss, 0 add conss, 10 chg bounds, 0 chg sides, 0 chg coeffs, 0 upgd conss, 0 impls, 0 clqs
(round 2, fast)       10 del vars, 20 del conss, 0 add conss, 20 chg bounds, 0 chg sides, 0 chg coeffs, 0 upgd conss, 0 impls, 0 clqs
   (0.0s) symmetry computation started: requiring (bin +, int +, cont +), (fixed: bin -, int -, cont -)
   (0.0s) no symmetry present
presolving (3 rounds: 3 fast, 1 medium, 1 exhaustive):
 10 deleted vars, 20 deleted constraints, 0 added constraints, 20 tightened bounds, 0 added holes, 0 changed sides, 0 changed coefficients
 0 implications, 0 cliques
presolved problem has 20 variables (0 bin, 0 int, 0 impl, 20 cont) and 11 constraints
      1 constraints of type <linear>
     10 constraints of type <nonlinear>
Presolving Time: 0.00

 time | node  | left  |LP iter|LP it/n|mem/heur|mdpt |vars |cons |rows |cuts |sepa|confs|strbr|  dualbound   | primalbound  |  gap   | compl. 
t 0.0s|     1 |     0 |     0 |     - | trivial|   0 |  20 |  11 |   0 |   0 |  0 |   0 |   0 |-1.144503e+03 | 0.000000e+00 |    Inf | unknown
t 0.0s|     1 |     0 |     0 |     - |  trysol|   0 |  20 |  11 |   0 |   0 |  0 |   0 |   0 |-1.144503e+03 |-9.949501e+01 |1050.31%| unknown
  0.0s|     1 |     0 |    51 |     - |  1227k |   0 |  50 |  11 |  51 |   0 |  0 |   0 |   0 |-5.822262e+02 |-9.949501e+01 | 485.18%| unknown
L 0.0s|     1 |     0 |    51 |     - |undercov|   0 |  50 |  11 |  51 |   0 |  0 |   0 |   0 |-5.822262e+02 |-1.792780e+02 | 224.76%| unknown
L 0.1s|     1 |     0 |    51 |     - |undercov|   0 |  50 |  11 |  51 |   0 |  0 |   0 |   0 |-5.822262e+02 |-3.528253e+02 |  65.02%| unknown
L 0.1s|     1 |     0 |    51 |     - |  subnlp|   0 |  50 |  11 |  51 |   0 |  0 |   0 |   0 |-5.822262e+02 |-3.890887e+02 |  49.64%| unknown
  0.1s|     1 |     0 |    60 |     - |  1261k |   0 |  50 |  11 |  60 |   9 |  1 |   0 |   0 |-5.562730e+02 |-3.890887e+02 |  42.97%| unknown
  0.1s|     1 |     0 |    60 |     - |  1261k |   0 |  50 |  11 |  60 |   9 |  1 |   0 |   0 |-5.562730e+02 |-3.890887e+02 |  42.97%| unknown
  0.1s|     1 |     0 |    70 |     - |  1261k |   0 |  50 |  11 |  69 |  18 |  2 |   0 |   0 |-5.501582e+02 |-3.890887e+02 |  41.40%| unknown
  0.1s|     1 |     0 |    79 |     - |  1265k |   0 |  50 |  11 |  78 |  27 |  3 |   0 |   0 |-5.482095e+02 |-3.890887e+02 |  40.90%| unknown
  0.1s|     1 |     0 |    88 |     - |  1265k |   0 |  50 |  11 |  87 |  36 |  4 |   0 |   0 |-5.479517e+02 |-3.890887e+02 |  40.83%| unknown
  0.1s|     1 |     0 |    96 |     - |  1297k |   0 |  50 |  11 |  96 |  45 |  5 |   0 |   0 |-5.478251e+02 |-3.890887e+02 |  40.80%| unknown
  0.1s|     1 |     0 |   106 |     - |  1298k |   0 |  50 |  11 | 105 |  54 |  6 |   0 |   0 |-5.478133e+02 |-3.890887e+02 |  40.79%| unknown
  0.1s|     1 |     0 |   114 |     - |  1298k |   0 |  50 |  11 | 114 |  63 |  7 |   0 |   0 |-5.478090e+02 |-3.890887e+02 |  40.79%| unknown
  0.1s|     1 |     0 |   123 |     - |  1303k |   0 |  50 |  11 | 123 |  72 |  8 |   0 |   0 |-5.478082e+02 |-3.890887e+02 |  40.79%| unknown
 time | node  | left  |LP iter|LP it/n|mem/heur|mdpt |vars |cons |rows |cuts |sepa|confs|strbr|  dualbound   | primalbound  |  gap   | compl. 
  0.1s|     1 |     0 |   131 |     - |  1303k |   0 |  50 |  11 | 132 |  81 |  9 |   0 |   0 |-5.478078e+02 |-3.890887e+02 |  40.79%| unknown
  0.1s|     1 |     0 |   139 |     - |  1324k |   0 |  50 |  11 | 141 |  90 | 10 |   0 |   0 |-5.478077e+02 |-3.890887e+02 |  40.79%| unknown
  0.1s|     1 |     0 |   147 |     - |  1357k |   0 |  50 |  11 | 127 |  98 | 11 |   0 |   0 |-5.478077e+02 |-3.890887e+02 |  40.79%| unknown
  0.1s|     1 |     0 |   148 |     - |  1357k |   0 |  50 |  11 | 128 |  99 | 12 |   0 |   0 |-5.478077e+02 |-3.890887e+02 |  40.79%| unknown
  0.1s|     1 |     0 |   410 |     - |  1362k |   0 |  50 |  11 | 128 |  99 | 14 |   0 |   0 |-5.478077e+02 |-3.890887e+02 |  40.79%| unknown
  0.1s|     1 |     0 |   419 |     - |  1366k |   0 |  50 |  11 | 137 | 108 | 16 |   0 |   0 |-5.478077e+02 |-3.890887e+02 |  40.79%| unknown
  0.1s|     1 |     0 |   427 |     - |  1366k |   0 |  50 |  11 | 146 | 117 | 18 |   0 |   0 |-5.478077e+02 |-3.890887e+02 |  40.79%| unknown
  0.1s|     1 |     0 |   435 |     - |  1366k |   0 |  50 |  11 | 154 | 125 | 20 |   0 |   0 |-5.478077e+02 |-3.890887e+02 |  40.79%| unknown
  0.1s|     1 |     0 |   443 |     - |  1366k |   0 |  50 |  11 | 117 | 133 | 22 |   0 |   0 |-5.478077e+02 |-3.890887e+02 |  40.79%| unknown
  0.1s|     1 |     2 |   443 |     - |  1368k |   0 |  50 |  11 | 117 | 133 | 24 |   0 |   0 |-5.478077e+02 |-3.890887e+02 |  40.79%| unknown
  0.5s|   100 |    87 | 13983 | 139.4 |  3051k |   8 |  50 |  11 | 142 |9782 |  3 |   0 |   0 |-4.710053e+02 |-3.890887e+02 |  21.05%|  31.58%
  0.8s|   200 |   111 | 23599 | 117.7 |  3655k |  12 |  50 |  11 | 228 |  15k| 11 |   0 |   0 |-4.553906e+02 |-3.890887e+02 |  17.04%|  44.46%
  1.0s|   300 |   107 | 30880 | 102.7 |  4998k |  12 |  50 |  11 | 440 |  20k|  1 |   0 |   0 |-4.318993e+02 |-3.890887e+02 |  11.00%|  63.88%
  1.2s|   400 |    83 | 35885 |  89.5 |  5073k |  16 |  50 |  11 | 167 |  23k|  1 |   0 |   0 |-4.084983e+02 |-3.890887e+02 |   4.99%|  83.07%
d 1.2s|   460 |    47 | 37443 |  81.2 |linesear|  17 |  50 |  11 | 256 |  24k|  1 |   0 |   0 |-4.003617e+02 |-3.890887e+02 |   2.90%|  91.03%
 time | node  | left  |LP iter|LP it/n|mem/heur|mdpt |vars |cons |rows |cuts |sepa|confs|strbr|  dualbound   | primalbound  |  gap   | compl. 
L 1.3s|   470 |    43 | 37736 |  80.1 |  subnlp|  19 |  50 |  11 | 298 |  24k| 12 |   0 |   0 |-3.946369e+02 |-3.890887e+02 |   1.43%|  94.50%
  1.5s|   500 |    55 | 38536 |  76.9 |  5089k |  23 |  50 |  11 | 295 |  25k|  0 |   0 |   0 |-3.946369e+02 |-3.890887e+02 |   1.43%|  94.50%
  1.7s|   600 |    33 | 40961 |  68.1 |  5118k |  27 |  50 |  11 | 334 |  26k|  2 |   0 |   0 |-3.929211e+02 |-3.890887e+02 |   0.98%|  97.91%
  1.7s|   700 |     1 | 43740 |  62.3 |  5132k |  54 |  50 |  11 |   0 |  26k|  0 |   0 |   0 |-3.891166e+02 |-3.890887e+02 |   0.01%|  99.99%

SCIP Status        : problem is solved [optimal solution found]
Solving Time (sec) : 1.75
Solving Nodes      : 725
Primal Bound       : -3.89088663187066e+02 (21 solutions)
Dual Bound         : -3.89088663187066e+02
Gap                : 0.00 %
Min nlobj[1,1] + nlobj[1,2] + nlobj[1,3] + nlobj[1,4] + nlobj[1,5] + nlobj[1,6] + nlobj[1,7] + nlobj[1,8] + nlobj[1,9] + nlobj[1,10]
Subject to
 x[1,1] - 100 onoff[1,1] ≤ 0
 x[1,2] - 100 onoff[1,2] ≤ 0
 x[1,3] - 100 onoff[1,3] ≤ 0
 x[1,4] - 100 onoff[1,4] ≤ 0
 x[1,5] - 100 onoff[1,5] ≤ 0
 x[1,6] - 100 onoff[1,6] ≤ 0
 x[1,7] - 100 onoff[1,7] ≤ 0
 x[1,8] - 100 onoff[1,8] ≤ 0
 x[1,9] - 100 onoff[1,9] ≤ 0
 x[1,10] - 100 onoff[1,10] ≤ 0
 9 x[1,1] + 27 x[1,2] + 60 x[1,3] + 84 x[1,4] + 81 x[1,5] + 79 x[1,6] + 66 x[1,7] + 24 x[1,8] + 8 x[1,9] + 44 x[1,10] ≤ 24100
 x[1,1] ≤ 100
 x[1,2] ≤ 100
 x[1,3] ≤ 100
 x[1,4] ≤ 100
 x[1,5] ≤ 100
 x[1,6] ≤ 100
 x[1,7] ≤ 100
 x[1,8] ≤ 100
 x[1,9] ≤ 100
 x[1,10] ≤ 100
 x[1,1] ≥ 0
 x[1,2] ≥ 0
 x[1,3] ≥ 0
 x[1,4] ≥ 0
 x[1,5] ≥ 0
 x[1,6] ≥ 0
 x[1,7] ≥ 0
 x[1,8] ≥ 0
 x[1,9] ≥ 0
 x[1,10] ≥ 0
 nlobj[1,1] ≥ -10000000000
 nlobj[1,2] ≥ -10000000000
 nlobj[1,3] ≥ -10000000000
 nlobj[1,4] ≥ -10000000000
 nlobj[1,5] ≥ -10000000000
 nlobj[1,6] ≥ -10000000000
 nlobj[1,7] ≥ -10000000000
 nlobj[1,8] ≥ -10000000000
 nlobj[1,9] ≥ -10000000000
 nlobj[1,10] ≥ -10000000000
 x[1,1] ≤ 100
 x[1,2] ≤ 100
 x[1,3] ≤ 100
 x[1,4] ≤ 100
 x[1,5] ≤ 100
 x[1,6] ≤ 100
 x[1,7] ≤ 100
 x[1,8] ≤ 100
 x[1,9] ≤ 100
 x[1,10] ≤ 100
 nlobj[1,1] ≤ 10000000000
 nlobj[1,2] ≤ 10000000000
 nlobj[1,3] ≤ 10000000000
 nlobj[1,4] ≤ 10000000000
 nlobj[1,5] ≤ 10000000000
 nlobj[1,6] ≤ 10000000000
 nlobj[1,7] ≤ 10000000000
 nlobj[1,8] ≤ 10000000000
 nlobj[1,9] ≤ 10000000000
 nlobj[1,10] ≤ 10000000000
 onoff[1,1] binary
 onoff[1,2] binary
 onoff[1,3] binary
 onoff[1,4] binary
 onoff[1,5] binary
 onoff[1,6] binary
 onoff[1,7] binary
 onoff[1,8] binary
 onoff[1,9] binary
 onoff[1,10] binary
 (subexpression[1] - nlobj[1,1]) - 0.0 ≤ 0
 (subexpression[2] - nlobj[1,2]) - 0.0 ≤ 0
 (subexpression[3] - nlobj[1,3]) - 0.0 ≤ 0
 (subexpression[4] - nlobj[1,4]) - 0.0 ≤ 0
 (subexpression[5] - nlobj[1,5]) - 0.0 ≤ 0
 (subexpression[6] - nlobj[1,6]) - 0.0 ≤ 0
 (subexpression[7] - nlobj[1,7]) - 0.0 ≤ 0
 (subexpression[8] - nlobj[1,8]) - 0.0 ≤ 0
 (subexpression[9] - nlobj[1,9]) - 0.0 ≤ 0
 (subexpression[10] - nlobj[1,10]) - 0.0 ≤ 0
With NL expressions
 subexpression[1]: -1.0 * (0.00017349998155019773 * x[1,1] ^ 3.0 + -0.019277775727911152 * x[1,1] ^ 2.0 + 0.7068517766949978 * x[1,1] + 17.135800646762156 * onoff[1,1])
 subexpression[2]: -1.0 * (0.0002494431161084812 * x[1,2] ^ 3.0 + -0.027715901789991407 * x[1,2] ^ 2.0 + 1.0162497323067616 * x[1,2] + 24.636357146270875 * onoff[1,2])
 subexpression[3]: -1.0 * (0.00018733165551308422 * x[1,3] ^ 3.0 + -0.020814628390462976 * x[1,3] ^ 2.0 + 0.763203040988957 * x[1,3] + 18.50189190234225 * onoff[1,3])
 subexpression[4]: -1.0 * (1.1541456791269271e-6 * x[1,4] ^ 3.0 + -0.00012823840879262188 * x[1,4] ^ 2.0 + 0.004702074989095544 * x[1,4] + 0.11398969670275685 * onoff[1,4])
 subexpression[5]: -1.0 * (1.533372278151377e-5 * x[1,5] ^ 3.0 + -0.0017037469757335976 * x[1,5] ^ 2.0 + 0.06247072244400026 * x[1,5] + 1.5144417561837817 * onoff[1,5])
 subexpression[6]: -1.0 * (1.4246652255266087e-5 * x[1,6] ^ 3.0 + -0.0015829613617053802 * x[1,6] ^ 2.0 + 0.05804191659626809 * x[1,6] + 1.407076765938168 * onoff[1,6])
 subexpression[7]: -1.0 * (0.0001519086296068582 * x[1,7] ^ 3.0 + -0.016878736623081782 * x[1,7] ^ 2.0 + 0.6188870095173084 * x[1,7] + 15.003321442502981 * onoff[1,7])
 subexpression[8]: -1.0 * (7.044407737336725e-5 * x[1,8] ^ 3.0 + -0.007827119708197149 * x[1,8] ^ 2.0 + 0.2869943893025606 * x[1,8] + 6.957439740510071 * onoff[1,8])
 subexpression[9]: -1.0 * (2.4395544903960454e-5 * x[1,9] ^ 3.0 + -0.002710616100455715 * x[1,9] ^ 2.0 + 0.09938925701740164 * x[1,9] + 2.4094365337004517 * onoff[1,9])
 subexpression[10]: -1.0 * (0.00011962940024800506 * x[1,10] ^ 3.0 + -0.013292155583188489 * x[1,10] ^ 2.0 + 0.4873790380536383 * x[1,10] + 11.815249407092505 * onoff[1,10])

primal_bound = -389.0886631870657, dual_bound = -389.0886631870657, gap = 0.0, time = 5.15
